c1_10_7

VEHICLE
NUMBER   CAPACITY
250     200

CUSTOMER
CUST NO. XCOORD.  YCOORD.  DEMAND  READY TIME DUE DATE  SERVICE TIME

0   250    250     0     0    1824     0
12 270 49 30 857 1037 90
697 290 46 20 774 954 90
197 233 47 20 296 476 90
632 267 44 20 581 761 90
369 287 43 10 492 672 90
589 235 50 30 765 945 90
198 237 43 20 577 757 90
212 278 46 20 205 385 90
859 279 42 40 210 390 90
648 230 49 20 201 381 90
63 275 45 20 390 570 90
366 269 46 20 674 854 90
421 285 44 10 400 580 90
949 232 47 10 205 385 90
929 268 52 10 951 1131 90
261 288 44 20 584 764 90
38 273 55 20 196 376 90
64 238 46 40 670 850 90
633 277 50 10 203 383 90
767 231 43 10 390 570 90
192 269 48 20 766 946 90
814 288 53 40 871 1051 90
838 292 41 10 679 859 90
262 274 48 10 296 476 90
618 275 42 30 483 663 90
214 232 42 10 482 662 90
324 283 47 10 306 486 90
